1	14	1	8	29	100	0	0	0	0	0	0
2000	1	0	0	0	0	0	0	0	0	0	0
250	1	0	165.63	0.18	1	0	0	0	0	0	0
250	1	0	165.63	0.18	1	0	0	0	0	0	0
250	1	0	165.63	0.18	1	0	0	0	0	0	0
250	1	0	165.63	0.18	1	0	0	0	0	0	0
250	1	0	165.63	0.18	1	0	0	0	0	0	0
250	1	0	165.63	0.18	1	0	0	0	0	0	0
250	1	0	165.63	0.18	1	0	0	0	0	0	0
250	1	0	165.63	0.18	1	0	0	0	0	0	0
250	1	0	165.63	0.18	1	0	0	0	0	0	0
250	1	0	165.63	0.18	1	0	0	0	0	0	0
250	1	0	165.63	0.18	1	0	0	0	0	0	0
250	1	0	165.63	0.18	1	0	0	0	0	0	0
250	1	0	165.63	0.18	1	0	0	0	0	0	0
250	1	0	165.63	0.18	1	0	0	0	0	0	0
50	150	0	0	0	0	960	0	0	99999	0	0
25	25	0	0	0	0	960	0	0	99999	0	0
50	25	0	0	0	0	960	0	0	99999	0	0
75	25	0	0	0	0	960	0	0	99999	0	0
25	50	0	0	0	0	960	0	0	99999	0	0
75	50	0	0	0	0	960	0	0	99999	0	0
25	75	0	0	0	0	960	0	0	99999	0	0
50	75	0	0	0	0	960	0	0	99999	0	0
75	75	0	0	0	0	960	0	0	99999	0	0
25	25	0	0	0	0	960	0	0	0	0	0
50	25	0	0	0	0	960	0	0	0	0	0
75	25	0	0	0	0	960	0	0	0	0	0
25	50	0	0	0	0	960	0	0	0	0	0
75	50	0	0	0	0	960	0	0	0	0	0
25	75	0	0	0	0	960	0	0	0	0	0
50	75	0	0	0	0	960	0	0	0	0	0
75	75	0	0	0	0	960	0	0	0	0	0
40      50      0       0       0       0       240     0       0       0       0       0
73      52      0       0       0       0       240     0       0       0       0       0
90      55      0       0       0       0       240     0       0       0       0       0
55      79      0       0       0       0       240     0       0       0       0       0
69      89      0       0       0       0       240     0       0       0       0       0
32      80      0       0       0       0       240     0       0       0       0       0
39      96      0       0       0       0       240     0       0       0       0       0
23      80      0       0       0       0       240     0       0       0       0       0
4	83	0	0	0	0	960	0	0	0	0	0
18	58	0	0	0	0	960	0	0	0	0	0
1	56	0	0	0	0	960	0	0	0	0	0
13	31	0	0	0	0	960	0	0	0	0	0
-5	38	0	0	0	0	960	0	0	0	0	0
26	37	0	0	0	0	960	0	0	0	0	0
28	13	0	0	0	0	960	0	0	0	0	0
39	31	0	0	0	0	960	0	0	0	0	0
48	11	0	0	0	0	960	0	0	0	0	0
59	17	0	0	0	0	960	0	0	0	0	0
73	23	0	0	0	0	960	0	0	0	0	0
74	32	0	0	0	0	960	0	0	0	0	0
90	44	0	0	0	0	960	0	0	0	0	0
25	85	20	6	14	256	666	10	0	0	0	0
22	75	30	9	21	132	651	10	0	0	0	0
22	85	10	3	7	187	811	10	0	0	0	0
20	80	40	10	30	617	1014	10	0	0	0	0
20	85	20	5	15	468	1010	10	0	0	0	0
18	75	20	5	15	155	683	10	0	0	0	0
15	75	20	4	16	137	536	10	0	0	0	0
15	80	10	2	8	362	840	10	0	0	0	0
10	35	20	6	14	507	1017	10	0	0	0	0
10	40	30	8	22	344	790	10	0	0	0	0
8	40	40	8	32	326	798	10	0	0	0	0
8	45	20	4	16	611	1018	10	0	0	0	0
5	35	10	1	9	140	612	10	0	0	0	0
5	45	10	1	9	137	626	10	0	0	0	0
2	40	20	1	19	579	1011	10	0	0	0	0
0	40	20	0	20	143	644	10	0	0	0	0
0	45	20	0	20	142	584	10	0	0	0	0
44	5	20	2	18	551	1005	10	0	0	0	0
42	10	40	10	30	142	630	10	0	0	0	0
42	15	10	4	6	160	578	10	0	0	0	0
40	5	10	1	9	425	941	10	0	0	0	0
40	15	40	15	25	543	1016	10	0	0	0	0
38	5	30	4	26	147	721	10	0	0	0	0
38	15	10	4	6	137	591	10	0	0	0	0
35	5	20	3	17	147	606	10	0	0	0	0
95	30	30	9	21	523	992	10	0	0	0	0
95	35	20	7	13	421	993	10	0	0	0	0
92	30	10	3	7	157	658	10	0	0	0	0
90	35	10	4	6	434	890	10	0	0	0	0
88	30	10	3	7	352	802	10	0	0	0	0
88	35	20	8	12	356	1000	10	0	0	0	0
87	30	10	3	7	153	623	10	0	0	0	0
85	25	10	3	7	460	999	10	0	0	0	0
85	35	30	12	18	149	635	10	0	0	0	0
67	85	20	16	4	451	1006	10	0	0	0	0
65	85	40	31	9	439	917	10	0	0	0	0
65	82	10	8	2	142	715	10	0	0	0	0
62	80	30	23	7	139	656	10	0	0	0	0
60	80	10	8	2	479	1014	10	0	0	0	0
60	85	30	21	9	458	888	10	0	0	0	0
58	75	20	15	5	174	662	10	0	0	0	0
55	80	10	7	3	479	883	10	0	0	0	0
55	85	20	13	7	140	711	10	0	0	0	0
55	82	10	7	3	363	859	10	0	0	0	0
20	82	10	2	8	436	1013	10	0	0	0	0
18	80	10	2	8	515	1013	10	0	0	0	0
2	45	10	0	10	164	676	10	0	0	0	0
42	5	10	1	9	147	651	10	0	0	0	0
42	12	10	3	7	140	616	10	0	0	0	0
72	35	30	15	15	593	1015	10	0	0	0	0
55	20	19	7	12	399	887	10	0	0	0	0
25	30	3	3	0	445	983	10	0	0	0	0
20	50	5	2	3	186	670	10	0	0	0	0
55	60	16	15	1	482	954	10	0	0	0	0
30	60	16	8	8	476	1036	10	0	0	0	0
50	35	19	13	6	120	647	10	0	0	0	0
30	25	23	19	4	155	619	10	0	0	0	0
15	10	20	13	7	372	836	10	0	0	0	0
10	20	19	10	9	534	1008	10	0	0	0	0
15	60	17	4	13	128	621	10	0	0	0	0
45	65	9	6	3	386	1035	10	0	0	0	0
65	35	3	2	1	131	608	10	0	0	0	0
65	20	6	2	4	203	751	10	0	0	0	0
45	30	17	11	6	569	1009	10	0	0	0	0
35	40	16	14	2	113	552	10	0	0	0	0
41	37	16	14	2	484	1006	10	0	0	0	0
64	42	9	6	3	127	614	10	0	0	0	0
40	60	21	14	7	523	1041	10	0	0	0	0
31	52	27	16	11	111	589	10	0	0	0	0
35	69	23	12	11	343	775	10	0	0	0	0
65	55	14	12	2	613	1025	10	0	0	0	0
63	65	8	8	0	233	751	10	0	0	0	0
2	60	5	0	5	248	654	10	0	0	0	0
20	20	8	8	0	587	1014	10	0	0	0	0
5	5	16	16	0	329	761	10	0	0	0	0
60	12	31	6	25	144	630	10	0	0	0	0
23	3	7	1	6	151	652	10	0	0	0	0
8	56	27	4	23	226	800	10	0	0	0	0
6	68	30	3	27	140	616	10	0	0	0	0
47	47	13	13	0	238	782	10	0	0	0	0
49	58	10	8	2	586	1038	10	0	0	0	0
27	43	9	6	3	448	892	10	0	0	0	0
37	31	14	12	2	349	839	10	0	0	0	0
57	29	18	9	9	527	1023	10	0	0	0	0
63	23	2	1	1	137	734	10	0	0	0	0
21	24	28	25	3	343	725	10	0	0	0	0
12	24	13	7	6	378	706	10	0	0	0	0
24	58	19	8	11	465	979	10	0	0	0	0
67	5	25	2	23	480	998	10	0	0	0	0
37	47	6	5	1	106	548	10	0	0	0	0
49	42	13	11	2	335	865	10	0	0	0	0
53	43	14	11	3	468	1036	10	0	0	0	0
61	52	3	3	0	279	677	10	0	0	0	0
57	48	23	19	4	582	1033	10	0	0	0	0
56	37	6	4	2	417	963	10	0	0	0	0
55	54	26	26	0	243	633	10	0	0	0	0
4	18	35	8	27	618	1002	10	0	0	0	0
26	52	9	5	4	147	611	10	0	0	0	0
26	35	15	11	4	122	543	10	0	0	0	0
31	67	3	1	2	473	785	10	0	0	0	0
